certificates/rado_a6_c190_N32.cnf
c Rad2 upper bound instance: x1 + 6*x2 - x3 = 190, interval [1,32]
p cnf 32 220
1 3 32 0
-1 -3 -32 0
2 4 32 0
-2 -4 -32 0
3 5 32 0
-3 -5 -32 0
4 6 32 0
-4 -6 -32 0
1 5 31 0
-1 -5 -31 0
5 7 32 0
-5 -7 -32 0
2 6 31 0
-2 -6 -31 0
6 8 32 0
-6 -8 -32 0
3 7 31 0
-3 -7 -31 0
7 9 32 0
-7 -9 -32 0
4 8 31 0
-4 -8 -31 0
8 10 32 0
-8 -10 -32 0
5 9 31 0
-5 -9 -31 0
9 11 32 0
-9 -11 -32 0
6 10 31 0
-6 -10 -31 0
10 12 32 0
-10 -12 -32 0
1 11 30 0
-1 -11 -30 0
7 11 31 0
-7 -11 -31 0
11 13 32 0
-11 -13 -32 0
2 12 30 0
-2 -12 -30 0
8 12 31 0
-8 -12 -31 0
12 14 32 0
-12 -14 -32 0
3 13 30 0
-3 -13 -30 0
9 13 31 0
-9 -13 -31 0
13 15 32 0
-13 -15 -32 0
4 14 30 0
-4 -14 -30 0
10 14 31 0
-10 -14 -31 0
14 16 32 0
-14 -16 -32 0
5 15 30 0
-5 -15 -30 0
11 15 31 0
-11 -15 -31 0
15 17 32 0
-15 -17 -32 0
6 16 30 0
-6 -16 -30 0
12 16 31 0
-12 -16 -31 0
16 18 32 0
-16 -18 -32 0
1 17 29 0
-1 -17 -29 0
7 17 30 0
-7 -17 -30 0
13 17 31 0
-13 -17 -31 0
17 19 32 0
-17 -19 -32 0
2 18 29 0
-2 -18 -29 0
8 18 30 0
-8 -18 -30 0
14 18 31 0
-14 -18 -31 0
18 20 32 0
-18 -20 -32 0
3 19 29 0
-3 -19 -29 0
9 19 30 0
-9 -19 -30 0
15 19 31 0
-15 -19 -31 0
19 21 32 0
-19 -21 -32 0
4 20 29 0
-4 -20 -29 0
10 20 30 0
-10 -20 -30 0
16 20 31 0
-16 -20 -31 0
20 22 32 0
-20 -22 -32 0
5 21 29 0
-5 -21 -29 0
11 21 30 0
-11 -21 -30 0
17 21 31 0
-17 -21 -31 0
21 23 32 0
-21 -23 -32 0
6 22 29 0
-6 -22 -29 0
12 22 30 0
-12 -22 -30 0
18 22 31 0
-18 -22 -31 0
22 24 32 0
-22 -24 -32 0
1 23 28 0
-1 -23 -28 0
7 23 29 0
-7 -23 -29 0
13 23 30 0
-13 -23 -30 0
19 23 31 0
-19 -23 -31 0
23 25 32 0
-23 -25 -32 0
2 24 28 0
-2 -24 -28 0
8 24 29 0
-8 -24 -29 0
14 24 30 0
-14 -24 -30 0
20 24 31 0
-20 -24 -31 0
24 26 32 0
-24 -26 -32 0
3 25 28 0
-3 -25 -28 0
9 25 29 0
-9 -25 -29 0
15 25 30 0
-15 -25 -30 0
21 25 31 0
-21 -25 -31 0
25 27 32 0
-25 -27 -32 0
4 26 28 0
-4 -26 -28 0
10 26 29 0
-10 -26 -29 0
16 26 30 0
-16 -26 -30 0
22 26 31 0
-22 -26 -31 0
26 28 32 0
-26 -28 -32 0
5 27 28 0
-5 -27 -28 0
11 27 29 0
-11 -27 -29 0
17 27 30 0
-17 -27 -30 0
23 27 31 0
-23 -27 -31 0
27 29 32 0
-27 -29 -32 0
6 28 0
-6 -28 0
12 28 29 0
-12 -28 -29 0
18 28 30 0
-18 -28 -30 0
24 28 31 0
-24 -28 -31 0
28 30 32 0
-28 -30 -32 0
1 27 29 0
-1 -27 -29 0
7 28 29 0
-7 -28 -29 0
13 29 0
-13 -29 0
19 29 30 0
-19 -29 -30 0
25 29 31 0
-25 -29 -31 0
29 31 32 0
-29 -31 -32 0
2 27 30 0
-2 -27 -30 0
8 28 30 0
-8 -28 -30 0
14 29 30 0
-14 -29 -30 0
20 30 0
-20 -30 0
26 30 31 0
-26 -30 -31 0
30 32 0
-30 -32 0
3 27 31 0
-3 -27 -31 0
9 28 31 0
-9 -28 -31 0
15 29 31 0
-15 -29 -31 0
21 30 31 0
-21 -30 -31 0
27 31 0
-27 -31 0
4 27 32 0
-4 -27 -32 0
10 28 32 0
-10 -28 -32 0
16 29 32 0
-16 -29 -32 0
22 30 32 0
-22 -30 -32 0
28 31 32 0
-28 -31 -32 0
