certificates/rado_a6_c190_N32.drat
-32 0
30 0
-20 0
18 0
22 0
-8 0
-28 0
-12 0
-31 0
6 0
4 0
10 0
0
